VACCINE = Vaccine(1..3);
m = 24;
age = [YOUTH, YOUTH, BABY, BABY, CHILD, AGED, ANCIENT, CHILD, ANCIENT, CHILD, SENIOR, CHILD, BABY, AGED, ADULT, ANCIENT, ANCIENT, ANCIENT, ANCIENT, YOUTH, ADULT, YOUTH, AGED, ANCIENT];
gender = [OTHER, MALE, MALE, OTHER, OTHER, FEMALE, FEMALE, OTHER, OTHER, MALE, MALE, FEMALE, FEMALE, FEMALE, MALE, MALE, MALE, OTHER, OTHER, OTHER, OTHER, OTHER, FEMALE, OTHER];
health = [GOOD, POOR, POOR, COMPROMISED, COMPROMISED, GOOD, POOR, POOR, COMPROMISED, POOR, POOR, GOOD, COMPROMISED, POOR, COMPROMISED, COMPROMISED, POOR, GOOD, COMPROMISED, GOOD, POOR, POOR, GOOD, GOOD];
exposure = [HIGH, LOW, EXTREME, LOW, HIGH, LOW, HIGH, AVERAGE, HIGH, AVERAGE, HIGH, AVERAGE, EXTREME, LOW, EXTREME, LOW, LOW, EXTREME, AVERAGE, EXTREME, HIGH, EXTREME, EXTREME, LOW];
size = [11, 14, 12, 12, 14, 13, 10, 11, 12, 12, 11, 11, 14, 13, 13, 11, 10, 15, 14, 10, 12, 10, 13, 13];
minsize = 10;
age_group_min = [0, 1, 0, 0, 0, 1, 0];
age_group_max = [19, 8, 23, 19, 15, 14, 15];
max_people_diff = 85;
max_share_vaccines = 3;
health_information = {5, 9, 10};
exposure_information = {2, 7, 17, 20};